Normalized Data/p03_21_normalized_split0.vrp
NAME:p03_21_NORMALIZED_split
BEST_KNOWN: 0
COMMENT: 0
DIMENSION: 381
CAPACITY: 100
EDGE_WEIGHT_FORMAT: FUNCTION
EDGE_WEIGHT_TYPE: EXACT_2D
NODE_COORD_SECTION
1 0.00000 0.00000
2 21 -7
3 48 -18
4 48 -18
5 48 -18
6 48 -18
7 48 -18
8 48 -18
9 44 9
10 44 9
11 -25 -47
12 -25 -47
13 48 5
14 48 5
15 48 5
16 48 5
17 -6 -47
18 -6 -47
19 -6 -47
20 -20 -2
21 -30 -8
22 14 -34
23 14 -34
24 14 -34
25 14 -34
26 14 -34
27 14 -34
28 14 -34
29 48 2
30 48 2
31 48 2
32 24 -15
33 24 -15
34 -14 15
35 -14 15
36 39 35
37 39 35
38 39 35
39 39 35
40 39 35
41 -9 -30
42 -9 -30
43 -9 -30
44 -49 16
45 -49 16
46 -49 16
47 -49 16
48 -49 16
49 -11 48
50 -11 48
51 29 -44
52 29 -44
53 18 47
54 18 47
55 18 47
56 5 -41
57 5 -41
58 5 -41
59 5 -41
60 5 -41
61 5 -41
62 17 14
63 17 14
64 17 14
65 17 14
66 20 24
67 3 46
68 3 46
69 3 46
70 3 46
71 3 46
72 3 46
73 -47 -18
74 -47 -18
75 2 -45
76 2 -45
77 2 -45
78 -1 -26
79 -1 -26
80 26 46
81 26 46
82 26 46
83 38 -2
84 38 -2
85 38 -2
86 38 -2
87 38 -2
88 38 -2
89 -33 40
90 -33 40
91 -33 40
92 38 37
93 38 37
94 38 37
95 38 37
96 10 1
97 10 1
98 10 1
99 10 1
100 2 39
101 2 39
102 2 39
103 2 39
104 6 35
105 6 35
106 6 35
107 49 43
108 49 43
109 49 43
110 49 43
111 49 43
112 -7 -10
113 -7 -10
114 -36 -7
115 -36 -7
116 -5 40
117 -5 40
118 -16 -37
119 -16 -37
120 -16 -37
121 49 20
122 49 20
123 49 20
124 -45 -26
125 -45 -26
126 -45 -26
127 -45 -26
128 -34 18
129 -34 18
130 -44 20
131 -44 20
132 -42 2
133 -42 2
134 -42 2
135 -46 -25
136 -46 -25
137 -11 -1
138 -11 -1
139 -11 -1
140 -11 -1
141 35 -24
142 35 -24
143 35 -24
144 35 -24
145 35 -24
146 -42 -26
147 -42 -26
148 -42 -26
149 -42 -26
150 -46 -21
151 -46 -21
152 -46 -21
153 -46 -21
154 1 -8
155 1 -8
156 1 -8
157 1 -8
158 1 -8
159 -29 36
160 -29 36
161 -29 36
162 -29 36
163 44 19
164 44 19
165 44 19
166 44 19
167 9 0
168 9 0
169 9 0
170 9 0
171 9 0
172 9 0
173 9 0
174 7 38
175 7 38
176 -8 -43
177 -8 -43
178 47 -3
179 47 -3
180 47 -3
181 47 -3
182 47 -3
183 47 -3
184 19 28
185 19 28
186 19 28
187 19 28
188 19 28
189 19 28
190 -19 3
191 -19 3
192 -19 3
193 -19 3
194 -19 3
195 -50 -21
196 -50 -21
197 -50 -21
198 -50 -21
199 -50 -21
200 -50 -21
201 -3 -29
202 -3 -29
203 -3 -29
204 -3 -29
205 -3 -29
206 50 -8
207 50 -8
208 50 -8
209 50 -8
210 50 -8
211 50 -8
212 12 -28
213 12 -28
214 12 -28
215 1 -41
216 1 -41
217 44 -8
218 44 -8
219 34 -42
220 34 -42
221 34 -42
222 34 -42
223 -48 -30
224 -48 -30
225 -48 -30
226 -48 -30
227 -48 -30
228 -16 -25
229 -16 -25
230 -16 -25
231 -16 -25
232 -16 -25
233 -16 -25
234 41 31
235 41 31
236 41 31
237 41 31
238 41 31
239 41 31
240 26 25
241 26 25
242 26 25
243 26 25
244 26 25
245 -7 8
246 -7 8
247 -7 8
248 -7 8
249 -7 8
250 -46 -23
251 -46 -23
252 -46 -23
253 -46 -23
254 -46 -23
255 50 -7
256 50 -7
257 50 -7
258 50 -7
259 50 -7
260 50 -7
261 45 -29
262 45 -29
263 45 -29
264 45 -29
265 45 -29
266 45 -29
267 45 -29
268 8 24
269 8 24
270 46 10
271 46 10
272 46 10
273 46 10
274 46 10
275 46 10
276 46 10
277 -24 -41
278 -24 -41
279 -24 -41
280 6 -44
281 6 -44
282 6 -44
283 6 -44
284 6 -44
285 6 -44
286 2 43
287 2 43
288 2 43
289 41 10
290 41 10
291 41 10
292 41 10
293 41 10
294 -30 19
295 -30 19
296 13 23
297 13 23
298 13 23
299 13 23
300 13 23
301 10 47
302 10 47
303 8 49
304 8 49
305 8 49
306 8 49
307 8 49
308 8 49
309 8 49
310 -39 32
311 -39 32
312 -39 32
313 -39 32
314 -25 -6
315 -25 -6
316 -25 -6
317 -25 -6
318 23 -39
319 23 -39
320 -26 -1
321 -26 -1
322 -26 -1
323 -26 -1
324 -26 -1
325 -26 -1
326 13 -31
327 13 -31
328 13 -31
329 13 -31
330 13 -31
331 -11 18
332 -11 18
333 -11 18
334 38 -30
335 38 -30
336 38 -30
337 38 -30
338 38 -30
339 38 35
340 38 35
341 38 35
342 38 35
343 18 -29
344 18 -29
345 18 -29
346 -28 0
347 13 -41
348 13 -41
349 13 -41
350 13 -41
351 13 -41
352 13 -41
353 46 -17
354 46 -17
355 46 -17
356 46 -17
357 46 -17
358 13 24
359 13 24
360 -5 34
361 -5 34
362 -5 34
363 -5 34
364 -5 34
365 -23 38
366 -23 38
367 -23 38
368 17 -7
369 17 -7
370 17 -7
371 18 38
372 18 38
373 18 38
374 18 38
375 18 38
376 20 50
377 20 50
378 43 -25
379 43 -25
380 43 -25
381 43 -25
DEMAND_SECTION
1 0
2 20
3 20
4 10
5 5
6 1
7 1
8 1
9 20
10 1
11 20
12 1
13 20
14 20
15 1
16 1
17 20
18 1
19 1
20 20
21 20
22 20
23 20
24 5
25 1
26 1
27 1
28 1
29 10
30 1
31 1
32 20
33 20
34 10
35 5
36 10
37 5
38 1
39 1
40 1
41 20
42 20
43 10
44 10
45 5
46 1
47 1
48 1
49 20
50 20
51 20
52 5
53 20
54 20
55 1
56 10
57 5
58 1
59 1
60 1
61 1
62 10
63 1
64 1
65 1
66 20
67 10
68 5
69 1
70 1
71 1
72 1
73 20
74 1
75 10
76 5
77 1
78 10
79 5
80 20
81 20
82 5
83 20
84 10
85 5
86 1
87 1
88 1
89 20
90 20
91 1
92 20
93 10
94 5
95 1
96 10
97 5
98 1
99 1
100 20
101 10
102 1
103 1
104 20
105 5
106 1
107 20
108 5
109 1
110 1
111 1
112 10
113 5
114 10
115 5
116 20
117 10
118 20
119 20
120 10
121 20
122 20
123 5
124 20
125 5
126 1
127 1
128 10
129 5
130 20
131 5
132 20
133 20
134 1
135 20
136 10
137 10
138 1
139 1
140 1
141 20
142 20
143 1
144 1
145 1
146 10
147 1
148 1
149 1
150 20
151 20
152 5
153 1
154 20
155 10
156 1
157 1
158 1
159 20
160 10
161 5
162 1
163 20
164 1
165 1
166 1
167 20
168 20
169 5
170 1
171 1
172 1
173 1
174 20
175 1
176 20
177 1
178 10
179 5
180 1
181 1
182 1
183 1
184 20
185 10
186 5
187 1
188 1
189 1
190 10
191 1
192 1
193 1
194 1
195 20
196 20
197 5
198 1
199 1
200 1
201 10
202 5
203 1
204 1
205 1
206 20
207 10
208 1
209 1
210 1
211 1
212 10
213 5
214 1
215 20
216 1
217 10
218 5
219 20
220 20
221 5
222 1
223 20
224 20
225 5
226 1
227 1
228 20
229 20
230 1
231 1
232 1
233 1
234 20
235 10
236 1
237 1
238 1
239 1
240 20
241 5
242 1
243 1
244 1
245 20
246 5
247 1
248 1
249 1
250 10
251 5
252 1
253 1
254 1
255 20
256 10
257 1
258 1
259 1
260 1
261 20
262 20
263 5
264 1
265 1
266 1
267 1
268 20
269 1
270 20
271 20
272 5
273 1
274 1
275 1
276 1
277 20
278 5
279 1
280 20
281 10
282 5
283 1
284 1
285 1
286 20
287 20
288 10
289 20
290 1
291 1
292 1
293 1
294 20
295 5
296 20
297 10
298 1
299 1
300 1
301 20
302 5
303 20
304 20
305 5
306 1
307 1
308 1
309 1
310 20
311 5
312 1
313 1
314 10
315 1
316 1
317 1
318 20
319 20
320 20
321 20
322 1
323 1
324 1
325 1
326 20
327 10
328 5
329 1
330 1
331 20
332 10
333 1
334 20
335 20
336 1
337 1
338 1
339 10
340 1
341 1
342 1
343 10
344 5
345 1
346 20
347 20
348 5
349 1
350 1
351 1
352 1
353 20
354 10
355 1
356 1
357 1
358 20
359 5
360 10
361 1
362 1
363 1
364 1
365 20
366 1
367 1
368 20
369 1
370 1
371 10
372 1
373 1
374 1
375 1
376 20
377 10
378 20
379 10
380 5
381 1
DEPOT_SECTION
1
-1
EOF