Normalized Data/p03_21_normalized_split0.sol
380 -1 356 353 354 352 355 5 7 4 2 3 6 368 -8 9 271 275 269 272 273 274 270 288 290 291 289 292 -15 14 12 13 30 28 29 181 178 177 182 180 179 87 82 86 -19 322 319 321 323 324 320 345 190 192 191 189 193 -23 21 22 26 27 326 329 328 325 327 213 212 211 -25 24 317 318 343 344 342 32 31 -49 48 366 364 365 159 161 158 160 -54 52 376 375 80 81 79 -60 56 59 55 57 58 283 281 280 282 279 284 75 74 76 215 214 -63 62 64 61 243 242 240 239 241 185 184 183 187 186 188 65 -78 77 203 200 42 41 40 112 111 -84 83 85 255 256 259 254 258 257 207 209 205 208 210 206 217 216 -90 89 88 309 311 312 310 294 293 -96 95 98 97 168 166 167 169 170 171 172 -101 102 68 66 67 71 69 70 303 300 301 53 374 373 370 372 371 -105 104 103 100 99 116 115 359 362 363 360 361 -118 117 119 229 232 230 231 227 228 -124 126 125 135 253 249 252 250 251 152 149 150 20 314 316 -127 128 129 130 47 43 44 45 46 132 131 133 -134 222 223 225 226 224 123 148 146 145 147 -138 136 137 139 -142 141 140 144 143 377 380 379 378 369 367 -151 195 198 199 196 194 197 72 73 113 114 315 313 -154 153 155 156 157 -165 164 163 162 120 122 121 234 238 233 -173 174 308 306 307 305 302 304 286 285 287 -201 204 202 176 175 17 18 16 10 11 276 278 277 -221 219 218 220 51 50 347 351 348 349 350 346 -235 236 237 110 107 106 109 108 94 91 93 92 37 36 35 39 38 339 340 341 338 -246 244 248 247 245 33 34 330 332 331 -265 261 266 263 260 264 262 336 337 335 333 334 -268 267 358 357 298 297 299 296 295 0 





OBJ=
2917.813
BEST_KNOWN=
0.000